atom_style          granular
boundary            f f f
newton              off
communicate	    	single vel yes
units               si 

region              dominio block 0 100 0 100 0 100 units box
create_box 1 dominio

neighbor		    1 bin
neigh_modify	    delay 0

fix 			    m1 all property/global youngsModulus peratomtype 763.94194041252864782277e7
fix 			    m2 all property/global poissonsRatio peratomtype 0.4
fix 		    	m3 all property/global coefficientRestitution peratomtypepair 1 0.5
fix 	    		m4 all property/global coefficientFriction peratomtypepair 1 0.5
fix 		     	m5 all property/global characteristicVelocity scalar 1

pair_style          gran/hooke/history 1 0
pair_coeff	    	* *

timestep	    	0.0000001

fix    		    	1 all nve/sphere

create_atoms 1 single 49.5 50.0 50 units box
create_atoms 1 single 50.5 50.0 50 units box
set atom 1 vx 1.0
set atom 1 vy 0.0
set atom 1 diameter 1
set atom 1 density  1.90985485103132161955691
set atom 1 omegay   0
set	atom 2 vx 0
set	atom 2 vy 0
set atom 2 diameter 1
set atom 2 density  1.90985485103132161955691

run                 1
compute			    rot_e all erotate/sphere
thermo_style	    custom step atoms ke c_rot_e 
thermo		    	1000
thermo_modify		lost ignore norm no
compute_modify		thermo_temp dynamic yes
dump		    	mydmp all custom 10 files/datos.dump id type mass x y z ix iy iz vx vy vz fx fy fz omegax omegay omegaz radius 
run			         5500
