echo			both
dimension 		3
atom_style 		granular
boundary		p p f
newton 			off
region 			dominio block 0 10 0 10 -4 100 units box
create_box 		1 dominio
lattice 		fcc 1
region			initP		block 2  8 2  8  2 5 units box
create_atoms		1 region initP units lattice
group			myPart region initP
set 			group myPart vz 0.0
set			group myPart vy 0.0
set			group myPart diameter 1
set			group myPart density  1.90985485103132161955691
set			group myPart omegax   0.0
neighbor		1 bin
neigh_modify		delay 0
fix 			m1 all property/global youngsModulus peratomtype 763.94194041252864782277e7
fix 			m2 all property/global poissonsRatio peratomtype 0.3
fix 			m3 all property/global coefficientRestitution peratomtypepair 1 0.85
fix 			m4 all property/global coefficientFriction peratomtypepair 1 0.5
fix 		 	m5 all property/global characteristicVelocity scalar 300
fix			grav all gravity 9810 vector 0.0 0.0 -1.0
fix 			ts_check all check/timestep/gran 100 0.1 0.1
pair_style		gran/hertz/incremental/energy  1 0 0
pair_coeff		* *
fix			zwall all wall/gran/hertz/incremental/energy  1 0 zplane -0.50 NULL 1 wiggle z 3.0 0.0625
communicate		single vel yes
fix    			1 all nve/sphere
timestep		0.0000001
run 0
variable		eKinRp atom 0.2*mass*radius*radius*(omegax*omegax+omegay*omegay+omegaz*omegaz)
compute			eKinLp  all ke/atom
variable		eKinp atom v_eKinRp+c_eKinLp
compute			eKin all reduce sum v_eKinp
compute			eKinR all reduce sum v_eKinRp
compute			eKinL all reduce sum c_eKinLp
compute 		displ all displace/atom
variable		ePGp atom mass*9810.0*c_displ[3]
compute			ePG all reduce sum v_ePGp
compute			epotN all reduce sum f_CPEn
compute			edisN all reduce sum f_CDEn
compute			epotT all reduce sum f_CPEt
compute			edisTV all reduce sum f_CDEVt
compute			edisTF all reduce sum f_CDEFt
compute			workT all reduce sum f_CTFW
compute			edisH all reduce sum f_DEH
variable		IKE equal f_IKE
variable		eCOL equal "c_epotN+c_edisN+c_epotT+c_edisTV+c_edisTF+c_workT"
variable		errorA equal "c_ePG+v_eCOL+c_eKin+c_edisH-v_IKE"
thermo_style		custom step atoms c_ePG v_eCOL c_eKin v_errorA
thermo			1000
thermo_modify		lost ignore norm no
compute_modify		thermo_temp dynamic yes
fix 			print1 all ave/time 1 1 1000 v_IKE c_edisH c_ePG v_eCOL c_eKin c_epotN c_edisN c_epotT c_edisTV c_edisTF c_workT c_eKinL c_eKinR file files/energy-Hertz_en_0.85_cof_0.5.csv
dump			mydmp all custom 1000 files/dump.Hertz_en_0.85_cof_0.5  id type mass x y z ix iy iz vx vy vz fx fy fz omegax omegay omegaz radius f_CPEn f_CDEn f_CPEt f_CDEVt f_CDEFt f_CTFW f_DEH v_ePGp c_eKinLp v_eKinRp
run			200000000 upto		
