echo both
dimension 3
atom_style granular
boundary f f f
newton off
region dominio block 0 100 0 100 0 100 units box
create_box 1 dominio
create_atoms 1 single 50 50.0 0.5001 units box
set atom 1 vz -1.0
set atom 1 vy 0.0
set atom 1 diameter 1
set atom 1 density  1.90985485103132161955691
set atom 1 omegay   0
neighbor		1 bin
neigh_modify	delay 0
fix 			m1 all property/global youngsModulus peratomtype 763.94194041252864782277e7
fix 			m2 all property/global poissonsRatio peratomtype 0.3
fix 			m3 all property/global coefficientRestitution peratomtypepair 1 0.7
fix 			m4 all property/global coefficientFriction peratomtypepair 1 1.0
fix 		 	m5 all property/global characteristicVelocity scalar 10
pair_style		gran/hertz/incremental/energy  1 0 0
pair_coeff		* *
fix				zwall all wall/gran/hertz/incremental/energy  1 0 zplane 0 NULL 1 #wiggle z 0.1 6.0e-2	
communicate		single vel yes
fix    			1 all nve/sphere
timestep		0.0000001
run 1
	
compute			rot_e all erotate/sphere
compute			eKin  all ke
compute		  epotN all reduce sum f_CPEn
compute			edisN all reduce sum f_CDEn
compute			epotT all reduce sum f_CPEt
compute			edisTV all reduce sum f_CDEVt
compute			edisTF all reduce sum f_CDEFt
compute			workT all reduce sum f_CTFW
compute			edisH all reduce sum f_DEH
variable		IKE equal f_IKE
variable		eCon equal "c_eKin + c_rot_e + c_epotN"
variable		eTot equal "v_eCon + c_edisN + c_edisTF+c_edisTV+c_edisH+c_workT-v_IKE"
thermo_style	custom step atoms v_IKE v_eTot v_eCon c_eKin c_rot_e c_epotN c_epotT c_edisN c_edisTV c_edisTF c_workT c_edisH								  
thermo			10
thermo_modify	lost ignore norm no
compute_modify	thermo_temp dynamic yes

fix 			print1 all ave/time 1 1 10 f_IKE[0] c_eKin c_rot_e c_epotN c_epotT c_edisN c_edisTV c_edisTF c_workT v_eCon v_eTot  c_edisH file files/energy-pitos.csv
dump			mydmp all custom 10 files/pitos id type mass x y z ix iy iz vx vy vz fx fy fz omegax omegay omegaz radius f_CPEn f_CDEn f_CPEt f_CDEVt f_CDEFt f_CTFW f_DEH
run			    5000 upto		
